
(set-logic LIA)
(synth-fun int_bvnor_5 ((s Int) (t Int)) Int
(
  (I Int) (Ic Int) (B Bool)
)
(
  (I Int  (
       Ic
       (+ I I )
       (* Ic I)
       (ite B I I)
    )
  )
  (Ic Int (
  s
  t
    (Constant Int)
  )
)
  (B Bool (
       (= I I)
       (>= I I)
       (not B)
     )
  )
)
)
(constraint (= (int_bvnor_5 0 0) 31))
(constraint (= (int_bvnor_5 0 1) 30))
(constraint (= (int_bvnor_5 0 2) 29))
(constraint (= (int_bvnor_5 0 3) 28))
(constraint (= (int_bvnor_5 0 4) 27))
(constraint (= (int_bvnor_5 0 5) 26))
(constraint (= (int_bvnor_5 0 6) 25))
(constraint (= (int_bvnor_5 0 7) 24))
(constraint (= (int_bvnor_5 0 8) 23))
(constraint (= (int_bvnor_5 0 9) 22))
(constraint (= (int_bvnor_5 0 10) 21))
(constraint (= (int_bvnor_5 0 11) 20))
(constraint (= (int_bvnor_5 0 12) 19))
(constraint (= (int_bvnor_5 0 13) 18))
(constraint (= (int_bvnor_5 0 14) 17))
(constraint (= (int_bvnor_5 0 15) 16))
(constraint (= (int_bvnor_5 0 16) 15))
(constraint (= (int_bvnor_5 0 17) 14))
(constraint (= (int_bvnor_5 0 18) 13))
(constraint (= (int_bvnor_5 0 19) 12))
(constraint (= (int_bvnor_5 0 20) 11))
(constraint (= (int_bvnor_5 0 21) 10))
(constraint (= (int_bvnor_5 0 22) 9))
(constraint (= (int_bvnor_5 0 23) 8))
(constraint (= (int_bvnor_5 0 24) 7))
(constraint (= (int_bvnor_5 0 25) 6))
(constraint (= (int_bvnor_5 0 26) 5))
(constraint (= (int_bvnor_5 0 27) 4))
(constraint (= (int_bvnor_5 0 28) 3))
(constraint (= (int_bvnor_5 0 29) 2))
(constraint (= (int_bvnor_5 0 30) 1))
(constraint (= (int_bvnor_5 0 31) 0))
(constraint (= (int_bvnor_5 1 0) 30))
(constraint (= (int_bvnor_5 1 1) 30))
(constraint (= (int_bvnor_5 1 2) 28))
(constraint (= (int_bvnor_5 1 3) 28))
(constraint (= (int_bvnor_5 1 4) 26))
(constraint (= (int_bvnor_5 1 5) 26))
(constraint (= (int_bvnor_5 1 6) 24))
(constraint (= (int_bvnor_5 1 7) 24))
(constraint (= (int_bvnor_5 1 8) 22))
(constraint (= (int_bvnor_5 1 9) 22))
(constraint (= (int_bvnor_5 1 10) 20))
(constraint (= (int_bvnor_5 1 11) 20))
(constraint (= (int_bvnor_5 1 12) 18))
(constraint (= (int_bvnor_5 1 13) 18))
(constraint (= (int_bvnor_5 1 14) 16))
(constraint (= (int_bvnor_5 1 15) 16))
(constraint (= (int_bvnor_5 1 16) 14))
(constraint (= (int_bvnor_5 1 17) 14))
(constraint (= (int_bvnor_5 1 18) 12))
(constraint (= (int_bvnor_5 1 19) 12))
(constraint (= (int_bvnor_5 1 20) 10))
(constraint (= (int_bvnor_5 1 21) 10))
(constraint (= (int_bvnor_5 1 22) 8))
(constraint (= (int_bvnor_5 1 23) 8))
(constraint (= (int_bvnor_5 1 24) 6))
(constraint (= (int_bvnor_5 1 25) 6))
(constraint (= (int_bvnor_5 1 26) 4))
(constraint (= (int_bvnor_5 1 27) 4))
(constraint (= (int_bvnor_5 1 28) 2))
(constraint (= (int_bvnor_5 1 29) 2))
(constraint (= (int_bvnor_5 1 30) 0))
(constraint (= (int_bvnor_5 1 31) 0))
(constraint (= (int_bvnor_5 2 0) 29))
(constraint (= (int_bvnor_5 2 1) 28))
(constraint (= (int_bvnor_5 2 2) 29))
(constraint (= (int_bvnor_5 2 3) 28))
(constraint (= (int_bvnor_5 2 4) 25))
(constraint (= (int_bvnor_5 2 5) 24))
(constraint (= (int_bvnor_5 2 6) 25))
(constraint (= (int_bvnor_5 2 7) 24))
(constraint (= (int_bvnor_5 2 8) 21))
(constraint (= (int_bvnor_5 2 9) 20))
(constraint (= (int_bvnor_5 2 10) 21))
(constraint (= (int_bvnor_5 2 11) 20))
(constraint (= (int_bvnor_5 2 12) 17))
(constraint (= (int_bvnor_5 2 13) 16))
(constraint (= (int_bvnor_5 2 14) 17))
(constraint (= (int_bvnor_5 2 15) 16))
(constraint (= (int_bvnor_5 2 16) 13))
(constraint (= (int_bvnor_5 2 17) 12))
(constraint (= (int_bvnor_5 2 18) 13))
(constraint (= (int_bvnor_5 2 19) 12))
(constraint (= (int_bvnor_5 2 20) 9))
(constraint (= (int_bvnor_5 2 21) 8))
(constraint (= (int_bvnor_5 2 22) 9))
(constraint (= (int_bvnor_5 2 23) 8))
(constraint (= (int_bvnor_5 2 24) 5))
(constraint (= (int_bvnor_5 2 25) 4))
(constraint (= (int_bvnor_5 2 26) 5))
(constraint (= (int_bvnor_5 2 27) 4))
(constraint (= (int_bvnor_5 2 28) 1))
(constraint (= (int_bvnor_5 2 29) 0))
(constraint (= (int_bvnor_5 2 30) 1))
(constraint (= (int_bvnor_5 2 31) 0))
(constraint (= (int_bvnor_5 3 0) 28))
(constraint (= (int_bvnor_5 3 1) 28))
(constraint (= (int_bvnor_5 3 2) 28))
(constraint (= (int_bvnor_5 3 3) 28))
(constraint (= (int_bvnor_5 3 4) 24))
(constraint (= (int_bvnor_5 3 5) 24))
(constraint (= (int_bvnor_5 3 6) 24))
(constraint (= (int_bvnor_5 3 7) 24))
(constraint (= (int_bvnor_5 3 8) 20))
(constraint (= (int_bvnor_5 3 9) 20))
(constraint (= (int_bvnor_5 3 10) 20))
(constraint (= (int_bvnor_5 3 11) 20))
(constraint (= (int_bvnor_5 3 12) 16))
(constraint (= (int_bvnor_5 3 13) 16))
(constraint (= (int_bvnor_5 3 14) 16))
(constraint (= (int_bvnor_5 3 15) 16))
(constraint (= (int_bvnor_5 3 16) 12))
(constraint (= (int_bvnor_5 3 17) 12))
(constraint (= (int_bvnor_5 3 18) 12))
(constraint (= (int_bvnor_5 3 19) 12))
(constraint (= (int_bvnor_5 3 20) 8))
(constraint (= (int_bvnor_5 3 21) 8))
(constraint (= (int_bvnor_5 3 22) 8))
(constraint (= (int_bvnor_5 3 23) 8))
(constraint (= (int_bvnor_5 3 24) 4))
(constraint (= (int_bvnor_5 3 25) 4))
(constraint (= (int_bvnor_5 3 26) 4))
(constraint (= (int_bvnor_5 3 27) 4))
(constraint (= (int_bvnor_5 3 28) 0))
(constraint (= (int_bvnor_5 3 29) 0))
(constraint (= (int_bvnor_5 3 30) 0))
(constraint (= (int_bvnor_5 3 31) 0))
(constraint (= (int_bvnor_5 4 0) 27))
(constraint (= (int_bvnor_5 4 1) 26))
(constraint (= (int_bvnor_5 4 2) 25))
(constraint (= (int_bvnor_5 4 3) 24))
(constraint (= (int_bvnor_5 4 4) 27))
(constraint (= (int_bvnor_5 4 5) 26))
(constraint (= (int_bvnor_5 4 6) 25))
(constraint (= (int_bvnor_5 4 7) 24))
(constraint (= (int_bvnor_5 4 8) 19))
(constraint (= (int_bvnor_5 4 9) 18))
(constraint (= (int_bvnor_5 4 10) 17))
(constraint (= (int_bvnor_5 4 11) 16))
(constraint (= (int_bvnor_5 4 12) 19))
(constraint (= (int_bvnor_5 4 13) 18))
(constraint (= (int_bvnor_5 4 14) 17))
(constraint (= (int_bvnor_5 4 15) 16))
(constraint (= (int_bvnor_5 4 16) 11))
(constraint (= (int_bvnor_5 4 17) 10))
(constraint (= (int_bvnor_5 4 18) 9))
(constraint (= (int_bvnor_5 4 19) 8))
(constraint (= (int_bvnor_5 4 20) 11))
(constraint (= (int_bvnor_5 4 21) 10))
(constraint (= (int_bvnor_5 4 22) 9))
(constraint (= (int_bvnor_5 4 23) 8))
(constraint (= (int_bvnor_5 4 24) 3))
(constraint (= (int_bvnor_5 4 25) 2))
(constraint (= (int_bvnor_5 4 26) 1))
(constraint (= (int_bvnor_5 4 27) 0))
(constraint (= (int_bvnor_5 4 28) 3))
(constraint (= (int_bvnor_5 4 29) 2))
(constraint (= (int_bvnor_5 4 30) 1))
(constraint (= (int_bvnor_5 4 31) 0))
(constraint (= (int_bvnor_5 5 0) 26))
(constraint (= (int_bvnor_5 5 1) 26))
(constraint (= (int_bvnor_5 5 2) 24))
(constraint (= (int_bvnor_5 5 3) 24))
(constraint (= (int_bvnor_5 5 4) 26))
(constraint (= (int_bvnor_5 5 5) 26))
(constraint (= (int_bvnor_5 5 6) 24))
(constraint (= (int_bvnor_5 5 7) 24))
(constraint (= (int_bvnor_5 5 8) 18))
(constraint (= (int_bvnor_5 5 9) 18))
(constraint (= (int_bvnor_5 5 10) 16))
(constraint (= (int_bvnor_5 5 11) 16))
(constraint (= (int_bvnor_5 5 12) 18))
(constraint (= (int_bvnor_5 5 13) 18))
(constraint (= (int_bvnor_5 5 14) 16))
(constraint (= (int_bvnor_5 5 15) 16))
(constraint (= (int_bvnor_5 5 16) 10))
(constraint (= (int_bvnor_5 5 17) 10))
(constraint (= (int_bvnor_5 5 18) 8))
(constraint (= (int_bvnor_5 5 19) 8))
(constraint (= (int_bvnor_5 5 20) 10))
(constraint (= (int_bvnor_5 5 21) 10))
(constraint (= (int_bvnor_5 5 22) 8))
(constraint (= (int_bvnor_5 5 23) 8))
(constraint (= (int_bvnor_5 5 24) 2))
(constraint (= (int_bvnor_5 5 25) 2))
(constraint (= (int_bvnor_5 5 26) 0))
(constraint (= (int_bvnor_5 5 27) 0))
(constraint (= (int_bvnor_5 5 28) 2))
(constraint (= (int_bvnor_5 5 29) 2))
(constraint (= (int_bvnor_5 5 30) 0))
(constraint (= (int_bvnor_5 5 31) 0))
(constraint (= (int_bvnor_5 6 0) 25))
(constraint (= (int_bvnor_5 6 1) 24))
(constraint (= (int_bvnor_5 6 2) 25))
(constraint (= (int_bvnor_5 6 3) 24))
(constraint (= (int_bvnor_5 6 4) 25))
(constraint (= (int_bvnor_5 6 5) 24))
(constraint (= (int_bvnor_5 6 6) 25))
(constraint (= (int_bvnor_5 6 7) 24))
(constraint (= (int_bvnor_5 6 8) 17))
(constraint (= (int_bvnor_5 6 9) 16))
(constraint (= (int_bvnor_5 6 10) 17))
(constraint (= (int_bvnor_5 6 11) 16))
(constraint (= (int_bvnor_5 6 12) 17))
(constraint (= (int_bvnor_5 6 13) 16))
(constraint (= (int_bvnor_5 6 14) 17))
(constraint (= (int_bvnor_5 6 15) 16))
(constraint (= (int_bvnor_5 6 16) 9))
(constraint (= (int_bvnor_5 6 17) 8))
(constraint (= (int_bvnor_5 6 18) 9))
(constraint (= (int_bvnor_5 6 19) 8))
(constraint (= (int_bvnor_5 6 20) 9))
(constraint (= (int_bvnor_5 6 21) 8))
(constraint (= (int_bvnor_5 6 22) 9))
(constraint (= (int_bvnor_5 6 23) 8))
(constraint (= (int_bvnor_5 6 24) 1))
(constraint (= (int_bvnor_5 6 25) 0))
(constraint (= (int_bvnor_5 6 26) 1))
(constraint (= (int_bvnor_5 6 27) 0))
(constraint (= (int_bvnor_5 6 28) 1))
(constraint (= (int_bvnor_5 6 29) 0))
(constraint (= (int_bvnor_5 6 30) 1))
(constraint (= (int_bvnor_5 6 31) 0))
(constraint (= (int_bvnor_5 7 0) 24))
(constraint (= (int_bvnor_5 7 1) 24))
(constraint (= (int_bvnor_5 7 2) 24))
(constraint (= (int_bvnor_5 7 3) 24))
(constraint (= (int_bvnor_5 7 4) 24))
(constraint (= (int_bvnor_5 7 5) 24))
(constraint (= (int_bvnor_5 7 6) 24))
(constraint (= (int_bvnor_5 7 7) 24))
(constraint (= (int_bvnor_5 7 8) 16))
(constraint (= (int_bvnor_5 7 9) 16))
(constraint (= (int_bvnor_5 7 10) 16))
(constraint (= (int_bvnor_5 7 11) 16))
(constraint (= (int_bvnor_5 7 12) 16))
(constraint (= (int_bvnor_5 7 13) 16))
(constraint (= (int_bvnor_5 7 14) 16))
(constraint (= (int_bvnor_5 7 15) 16))
(constraint (= (int_bvnor_5 7 16) 8))
(constraint (= (int_bvnor_5 7 17) 8))
(constraint (= (int_bvnor_5 7 18) 8))
(constraint (= (int_bvnor_5 7 19) 8))
(constraint (= (int_bvnor_5 7 20) 8))
(constraint (= (int_bvnor_5 7 21) 8))
(constraint (= (int_bvnor_5 7 22) 8))
(constraint (= (int_bvnor_5 7 23) 8))
(constraint (= (int_bvnor_5 7 24) 0))
(constraint (= (int_bvnor_5 7 25) 0))
(constraint (= (int_bvnor_5 7 26) 0))
(constraint (= (int_bvnor_5 7 27) 0))
(constraint (= (int_bvnor_5 7 28) 0))
(constraint (= (int_bvnor_5 7 29) 0))
(constraint (= (int_bvnor_5 7 30) 0))
(constraint (= (int_bvnor_5 7 31) 0))
(constraint (= (int_bvnor_5 8 0) 23))
(constraint (= (int_bvnor_5 8 1) 22))
(constraint (= (int_bvnor_5 8 2) 21))
(constraint (= (int_bvnor_5 8 3) 20))
(constraint (= (int_bvnor_5 8 4) 19))
(constraint (= (int_bvnor_5 8 5) 18))
(constraint (= (int_bvnor_5 8 6) 17))
(constraint (= (int_bvnor_5 8 7) 16))
(constraint (= (int_bvnor_5 8 8) 23))
(constraint (= (int_bvnor_5 8 9) 22))
(constraint (= (int_bvnor_5 8 10) 21))
(constraint (= (int_bvnor_5 8 11) 20))
(constraint (= (int_bvnor_5 8 12) 19))
(constraint (= (int_bvnor_5 8 13) 18))
(constraint (= (int_bvnor_5 8 14) 17))
(constraint (= (int_bvnor_5 8 15) 16))
(constraint (= (int_bvnor_5 8 16) 7))
(constraint (= (int_bvnor_5 8 17) 6))
(constraint (= (int_bvnor_5 8 18) 5))
(constraint (= (int_bvnor_5 8 19) 4))
(constraint (= (int_bvnor_5 8 20) 3))
(constraint (= (int_bvnor_5 8 21) 2))
(constraint (= (int_bvnor_5 8 22) 1))
(constraint (= (int_bvnor_5 8 23) 0))
(constraint (= (int_bvnor_5 8 24) 7))
(constraint (= (int_bvnor_5 8 25) 6))
(constraint (= (int_bvnor_5 8 26) 5))
(constraint (= (int_bvnor_5 8 27) 4))
(constraint (= (int_bvnor_5 8 28) 3))
(constraint (= (int_bvnor_5 8 29) 2))
(constraint (= (int_bvnor_5 8 30) 1))
(constraint (= (int_bvnor_5 8 31) 0))
(constraint (= (int_bvnor_5 9 0) 22))
(constraint (= (int_bvnor_5 9 1) 22))
(constraint (= (int_bvnor_5 9 2) 20))
(constraint (= (int_bvnor_5 9 3) 20))
(constraint (= (int_bvnor_5 9 4) 18))
(constraint (= (int_bvnor_5 9 5) 18))
(constraint (= (int_bvnor_5 9 6) 16))
(constraint (= (int_bvnor_5 9 7) 16))
(constraint (= (int_bvnor_5 9 8) 22))
(constraint (= (int_bvnor_5 9 9) 22))
(constraint (= (int_bvnor_5 9 10) 20))
(constraint (= (int_bvnor_5 9 11) 20))
(constraint (= (int_bvnor_5 9 12) 18))
(constraint (= (int_bvnor_5 9 13) 18))
(constraint (= (int_bvnor_5 9 14) 16))
(constraint (= (int_bvnor_5 9 15) 16))
(constraint (= (int_bvnor_5 9 16) 6))
(constraint (= (int_bvnor_5 9 17) 6))
(constraint (= (int_bvnor_5 9 18) 4))
(constraint (= (int_bvnor_5 9 19) 4))
(constraint (= (int_bvnor_5 9 20) 2))
(constraint (= (int_bvnor_5 9 21) 2))
(constraint (= (int_bvnor_5 9 22) 0))
(constraint (= (int_bvnor_5 9 23) 0))
(constraint (= (int_bvnor_5 9 24) 6))
(constraint (= (int_bvnor_5 9 25) 6))
(constraint (= (int_bvnor_5 9 26) 4))
(constraint (= (int_bvnor_5 9 27) 4))
(constraint (= (int_bvnor_5 9 28) 2))
(constraint (= (int_bvnor_5 9 29) 2))
(constraint (= (int_bvnor_5 9 30) 0))
(constraint (= (int_bvnor_5 9 31) 0))
(constraint (= (int_bvnor_5 10 0) 21))
(constraint (= (int_bvnor_5 10 1) 20))
(constraint (= (int_bvnor_5 10 2) 21))
(constraint (= (int_bvnor_5 10 3) 20))
(constraint (= (int_bvnor_5 10 4) 17))
(constraint (= (int_bvnor_5 10 5) 16))
(constraint (= (int_bvnor_5 10 6) 17))
(constraint (= (int_bvnor_5 10 7) 16))
(constraint (= (int_bvnor_5 10 8) 21))
(constraint (= (int_bvnor_5 10 9) 20))
(constraint (= (int_bvnor_5 10 10) 21))
(constraint (= (int_bvnor_5 10 11) 20))
(constraint (= (int_bvnor_5 10 12) 17))
(constraint (= (int_bvnor_5 10 13) 16))
(constraint (= (int_bvnor_5 10 14) 17))
(constraint (= (int_bvnor_5 10 15) 16))
(constraint (= (int_bvnor_5 10 16) 5))
(constraint (= (int_bvnor_5 10 17) 4))
(constraint (= (int_bvnor_5 10 18) 5))
(constraint (= (int_bvnor_5 10 19) 4))
(constraint (= (int_bvnor_5 10 20) 1))
(constraint (= (int_bvnor_5 10 21) 0))
(constraint (= (int_bvnor_5 10 22) 1))
(constraint (= (int_bvnor_5 10 23) 0))
(constraint (= (int_bvnor_5 10 24) 5))
(constraint (= (int_bvnor_5 10 25) 4))
(constraint (= (int_bvnor_5 10 26) 5))
(constraint (= (int_bvnor_5 10 27) 4))
(constraint (= (int_bvnor_5 10 28) 1))
(constraint (= (int_bvnor_5 10 29) 0))
(constraint (= (int_bvnor_5 10 30) 1))
(constraint (= (int_bvnor_5 10 31) 0))
(constraint (= (int_bvnor_5 11 0) 20))
(constraint (= (int_bvnor_5 11 1) 20))
(constraint (= (int_bvnor_5 11 2) 20))
(constraint (= (int_bvnor_5 11 3) 20))
(constraint (= (int_bvnor_5 11 4) 16))
(constraint (= (int_bvnor_5 11 5) 16))
(constraint (= (int_bvnor_5 11 6) 16))
(constraint (= (int_bvnor_5 11 7) 16))
(constraint (= (int_bvnor_5 11 8) 20))
(constraint (= (int_bvnor_5 11 9) 20))
(constraint (= (int_bvnor_5 11 10) 20))
(constraint (= (int_bvnor_5 11 11) 20))
(constraint (= (int_bvnor_5 11 12) 16))
(constraint (= (int_bvnor_5 11 13) 16))
(constraint (= (int_bvnor_5 11 14) 16))
(constraint (= (int_bvnor_5 11 15) 16))
(constraint (= (int_bvnor_5 11 16) 4))
(constraint (= (int_bvnor_5 11 17) 4))
(constraint (= (int_bvnor_5 11 18) 4))
(constraint (= (int_bvnor_5 11 19) 4))
(constraint (= (int_bvnor_5 11 20) 0))
(constraint (= (int_bvnor_5 11 21) 0))
(constraint (= (int_bvnor_5 11 22) 0))
(constraint (= (int_bvnor_5 11 23) 0))
(constraint (= (int_bvnor_5 11 24) 4))
(constraint (= (int_bvnor_5 11 25) 4))
(constraint (= (int_bvnor_5 11 26) 4))
(constraint (= (int_bvnor_5 11 27) 4))
(constraint (= (int_bvnor_5 11 28) 0))
(constraint (= (int_bvnor_5 11 29) 0))
(constraint (= (int_bvnor_5 11 30) 0))
(constraint (= (int_bvnor_5 11 31) 0))
(constraint (= (int_bvnor_5 12 0) 19))
(constraint (= (int_bvnor_5 12 1) 18))
(constraint (= (int_bvnor_5 12 2) 17))
(constraint (= (int_bvnor_5 12 3) 16))
(constraint (= (int_bvnor_5 12 4) 19))
(constraint (= (int_bvnor_5 12 5) 18))
(constraint (= (int_bvnor_5 12 6) 17))
(constraint (= (int_bvnor_5 12 7) 16))
(constraint (= (int_bvnor_5 12 8) 19))
(constraint (= (int_bvnor_5 12 9) 18))
(constraint (= (int_bvnor_5 12 10) 17))
(constraint (= (int_bvnor_5 12 11) 16))
(constraint (= (int_bvnor_5 12 12) 19))
(constraint (= (int_bvnor_5 12 13) 18))
(constraint (= (int_bvnor_5 12 14) 17))
(constraint (= (int_bvnor_5 12 15) 16))
(constraint (= (int_bvnor_5 12 16) 3))
(constraint (= (int_bvnor_5 12 17) 2))
(constraint (= (int_bvnor_5 12 18) 1))
(constraint (= (int_bvnor_5 12 19) 0))
(constraint (= (int_bvnor_5 12 20) 3))
(constraint (= (int_bvnor_5 12 21) 2))
(constraint (= (int_bvnor_5 12 22) 1))
(constraint (= (int_bvnor_5 12 23) 0))
(constraint (= (int_bvnor_5 12 24) 3))
(constraint (= (int_bvnor_5 12 25) 2))
(constraint (= (int_bvnor_5 12 26) 1))
(constraint (= (int_bvnor_5 12 27) 0))
(constraint (= (int_bvnor_5 12 28) 3))
(constraint (= (int_bvnor_5 12 29) 2))
(constraint (= (int_bvnor_5 12 30) 1))
(constraint (= (int_bvnor_5 12 31) 0))
(constraint (= (int_bvnor_5 13 0) 18))
(constraint (= (int_bvnor_5 13 1) 18))
(constraint (= (int_bvnor_5 13 2) 16))
(constraint (= (int_bvnor_5 13 3) 16))
(constraint (= (int_bvnor_5 13 4) 18))
(constraint (= (int_bvnor_5 13 5) 18))
(constraint (= (int_bvnor_5 13 6) 16))
(constraint (= (int_bvnor_5 13 7) 16))
(constraint (= (int_bvnor_5 13 8) 18))
(constraint (= (int_bvnor_5 13 9) 18))
(constraint (= (int_bvnor_5 13 10) 16))
(constraint (= (int_bvnor_5 13 11) 16))
(constraint (= (int_bvnor_5 13 12) 18))
(constraint (= (int_bvnor_5 13 13) 18))
(constraint (= (int_bvnor_5 13 14) 16))
(constraint (= (int_bvnor_5 13 15) 16))
(constraint (= (int_bvnor_5 13 16) 2))
(constraint (= (int_bvnor_5 13 17) 2))
(constraint (= (int_bvnor_5 13 18) 0))
(constraint (= (int_bvnor_5 13 19) 0))
(constraint (= (int_bvnor_5 13 20) 2))
(constraint (= (int_bvnor_5 13 21) 2))
(constraint (= (int_bvnor_5 13 22) 0))
(constraint (= (int_bvnor_5 13 23) 0))
(constraint (= (int_bvnor_5 13 24) 2))
(constraint (= (int_bvnor_5 13 25) 2))
(constraint (= (int_bvnor_5 13 26) 0))
(constraint (= (int_bvnor_5 13 27) 0))
(constraint (= (int_bvnor_5 13 28) 2))
(constraint (= (int_bvnor_5 13 29) 2))
(constraint (= (int_bvnor_5 13 30) 0))
(constraint (= (int_bvnor_5 13 31) 0))
(constraint (= (int_bvnor_5 14 0) 17))
(constraint (= (int_bvnor_5 14 1) 16))
(constraint (= (int_bvnor_5 14 2) 17))
(constraint (= (int_bvnor_5 14 3) 16))
(constraint (= (int_bvnor_5 14 4) 17))
(constraint (= (int_bvnor_5 14 5) 16))
(constraint (= (int_bvnor_5 14 6) 17))
(constraint (= (int_bvnor_5 14 7) 16))
(constraint (= (int_bvnor_5 14 8) 17))
(constraint (= (int_bvnor_5 14 9) 16))
(constraint (= (int_bvnor_5 14 10) 17))
(constraint (= (int_bvnor_5 14 11) 16))
(constraint (= (int_bvnor_5 14 12) 17))
(constraint (= (int_bvnor_5 14 13) 16))
(constraint (= (int_bvnor_5 14 14) 17))
(constraint (= (int_bvnor_5 14 15) 16))
(constraint (= (int_bvnor_5 14 16) 1))
(constraint (= (int_bvnor_5 14 17) 0))
(constraint (= (int_bvnor_5 14 18) 1))
(constraint (= (int_bvnor_5 14 19) 0))
(constraint (= (int_bvnor_5 14 20) 1))
(constraint (= (int_bvnor_5 14 21) 0))
(constraint (= (int_bvnor_5 14 22) 1))
(constraint (= (int_bvnor_5 14 23) 0))
(constraint (= (int_bvnor_5 14 24) 1))
(constraint (= (int_bvnor_5 14 25) 0))
(constraint (= (int_bvnor_5 14 26) 1))
(constraint (= (int_bvnor_5 14 27) 0))
(constraint (= (int_bvnor_5 14 28) 1))
(constraint (= (int_bvnor_5 14 29) 0))
(constraint (= (int_bvnor_5 14 30) 1))
(constraint (= (int_bvnor_5 14 31) 0))
(constraint (= (int_bvnor_5 15 0) 16))
(constraint (= (int_bvnor_5 15 1) 16))
(constraint (= (int_bvnor_5 15 2) 16))
(constraint (= (int_bvnor_5 15 3) 16))
(constraint (= (int_bvnor_5 15 4) 16))
(constraint (= (int_bvnor_5 15 5) 16))
(constraint (= (int_bvnor_5 15 6) 16))
(constraint (= (int_bvnor_5 15 7) 16))
(constraint (= (int_bvnor_5 15 8) 16))
(constraint (= (int_bvnor_5 15 9) 16))
(constraint (= (int_bvnor_5 15 10) 16))
(constraint (= (int_bvnor_5 15 11) 16))
(constraint (= (int_bvnor_5 15 12) 16))
(constraint (= (int_bvnor_5 15 13) 16))
(constraint (= (int_bvnor_5 15 14) 16))
(constraint (= (int_bvnor_5 15 15) 16))
(constraint (= (int_bvnor_5 15 16) 0))
(constraint (= (int_bvnor_5 15 17) 0))
(constraint (= (int_bvnor_5 15 18) 0))
(constraint (= (int_bvnor_5 15 19) 0))
(constraint (= (int_bvnor_5 15 20) 0))
(constraint (= (int_bvnor_5 15 21) 0))
(constraint (= (int_bvnor_5 15 22) 0))
(constraint (= (int_bvnor_5 15 23) 0))
(constraint (= (int_bvnor_5 15 24) 0))
(constraint (= (int_bvnor_5 15 25) 0))
(constraint (= (int_bvnor_5 15 26) 0))
(constraint (= (int_bvnor_5 15 27) 0))
(constraint (= (int_bvnor_5 15 28) 0))
(constraint (= (int_bvnor_5 15 29) 0))
(constraint (= (int_bvnor_5 15 30) 0))
(constraint (= (int_bvnor_5 15 31) 0))
(constraint (= (int_bvnor_5 16 0) 15))
(constraint (= (int_bvnor_5 16 1) 14))
(constraint (= (int_bvnor_5 16 2) 13))
(constraint (= (int_bvnor_5 16 3) 12))
(constraint (= (int_bvnor_5 16 4) 11))
(constraint (= (int_bvnor_5 16 5) 10))
(constraint (= (int_bvnor_5 16 6) 9))
(constraint (= (int_bvnor_5 16 7) 8))
(constraint (= (int_bvnor_5 16 8) 7))
(constraint (= (int_bvnor_5 16 9) 6))
(constraint (= (int_bvnor_5 16 10) 5))
(constraint (= (int_bvnor_5 16 11) 4))
(constraint (= (int_bvnor_5 16 12) 3))
(constraint (= (int_bvnor_5 16 13) 2))
(constraint (= (int_bvnor_5 16 14) 1))
(constraint (= (int_bvnor_5 16 15) 0))
(constraint (= (int_bvnor_5 16 16) 15))
(constraint (= (int_bvnor_5 16 17) 14))
(constraint (= (int_bvnor_5 16 18) 13))
(constraint (= (int_bvnor_5 16 19) 12))
(constraint (= (int_bvnor_5 16 20) 11))
(constraint (= (int_bvnor_5 16 21) 10))
(constraint (= (int_bvnor_5 16 22) 9))
(constraint (= (int_bvnor_5 16 23) 8))
(constraint (= (int_bvnor_5 16 24) 7))
(constraint (= (int_bvnor_5 16 25) 6))
(constraint (= (int_bvnor_5 16 26) 5))
(constraint (= (int_bvnor_5 16 27) 4))
(constraint (= (int_bvnor_5 16 28) 3))
(constraint (= (int_bvnor_5 16 29) 2))
(constraint (= (int_bvnor_5 16 30) 1))
(constraint (= (int_bvnor_5 16 31) 0))
(constraint (= (int_bvnor_5 17 0) 14))
(constraint (= (int_bvnor_5 17 1) 14))
(constraint (= (int_bvnor_5 17 2) 12))
(constraint (= (int_bvnor_5 17 3) 12))
(constraint (= (int_bvnor_5 17 4) 10))
(constraint (= (int_bvnor_5 17 5) 10))
(constraint (= (int_bvnor_5 17 6) 8))
(constraint (= (int_bvnor_5 17 7) 8))
(constraint (= (int_bvnor_5 17 8) 6))
(constraint (= (int_bvnor_5 17 9) 6))
(constraint (= (int_bvnor_5 17 10) 4))
(constraint (= (int_bvnor_5 17 11) 4))
(constraint (= (int_bvnor_5 17 12) 2))
(constraint (= (int_bvnor_5 17 13) 2))
(constraint (= (int_bvnor_5 17 14) 0))
(constraint (= (int_bvnor_5 17 15) 0))
(constraint (= (int_bvnor_5 17 16) 14))
(constraint (= (int_bvnor_5 17 17) 14))
(constraint (= (int_bvnor_5 17 18) 12))
(constraint (= (int_bvnor_5 17 19) 12))
(constraint (= (int_bvnor_5 17 20) 10))
(constraint (= (int_bvnor_5 17 21) 10))
(constraint (= (int_bvnor_5 17 22) 8))
(constraint (= (int_bvnor_5 17 23) 8))
(constraint (= (int_bvnor_5 17 24) 6))
(constraint (= (int_bvnor_5 17 25) 6))
(constraint (= (int_bvnor_5 17 26) 4))
(constraint (= (int_bvnor_5 17 27) 4))
(constraint (= (int_bvnor_5 17 28) 2))
(constraint (= (int_bvnor_5 17 29) 2))
(constraint (= (int_bvnor_5 17 30) 0))
(constraint (= (int_bvnor_5 17 31) 0))
(constraint (= (int_bvnor_5 18 0) 13))
(constraint (= (int_bvnor_5 18 1) 12))
(constraint (= (int_bvnor_5 18 2) 13))
(constraint (= (int_bvnor_5 18 3) 12))
(constraint (= (int_bvnor_5 18 4) 9))
(constraint (= (int_bvnor_5 18 5) 8))
(constraint (= (int_bvnor_5 18 6) 9))
(constraint (= (int_bvnor_5 18 7) 8))
(constraint (= (int_bvnor_5 18 8) 5))
(constraint (= (int_bvnor_5 18 9) 4))
(constraint (= (int_bvnor_5 18 10) 5))
(constraint (= (int_bvnor_5 18 11) 4))
(constraint (= (int_bvnor_5 18 12) 1))
(constraint (= (int_bvnor_5 18 13) 0))
(constraint (= (int_bvnor_5 18 14) 1))
(constraint (= (int_bvnor_5 18 15) 0))
(constraint (= (int_bvnor_5 18 16) 13))
(constraint (= (int_bvnor_5 18 17) 12))
(constraint (= (int_bvnor_5 18 18) 13))
(constraint (= (int_bvnor_5 18 19) 12))
(constraint (= (int_bvnor_5 18 20) 9))
(constraint (= (int_bvnor_5 18 21) 8))
(constraint (= (int_bvnor_5 18 22) 9))
(constraint (= (int_bvnor_5 18 23) 8))
(constraint (= (int_bvnor_5 18 24) 5))
(constraint (= (int_bvnor_5 18 25) 4))
(constraint (= (int_bvnor_5 18 26) 5))
(constraint (= (int_bvnor_5 18 27) 4))
(constraint (= (int_bvnor_5 18 28) 1))
(constraint (= (int_bvnor_5 18 29) 0))
(constraint (= (int_bvnor_5 18 30) 1))
(constraint (= (int_bvnor_5 18 31) 0))
(constraint (= (int_bvnor_5 19 0) 12))
(constraint (= (int_bvnor_5 19 1) 12))
(constraint (= (int_bvnor_5 19 2) 12))
(constraint (= (int_bvnor_5 19 3) 12))
(constraint (= (int_bvnor_5 19 4) 8))
(constraint (= (int_bvnor_5 19 5) 8))
(constraint (= (int_bvnor_5 19 6) 8))
(constraint (= (int_bvnor_5 19 7) 8))
(constraint (= (int_bvnor_5 19 8) 4))
(constraint (= (int_bvnor_5 19 9) 4))
(constraint (= (int_bvnor_5 19 10) 4))
(constraint (= (int_bvnor_5 19 11) 4))
(constraint (= (int_bvnor_5 19 12) 0))
(constraint (= (int_bvnor_5 19 13) 0))
(constraint (= (int_bvnor_5 19 14) 0))
(constraint (= (int_bvnor_5 19 15) 0))
(constraint (= (int_bvnor_5 19 16) 12))
(constraint (= (int_bvnor_5 19 17) 12))
(constraint (= (int_bvnor_5 19 18) 12))
(constraint (= (int_bvnor_5 19 19) 12))
(constraint (= (int_bvnor_5 19 20) 8))
(constraint (= (int_bvnor_5 19 21) 8))
(constraint (= (int_bvnor_5 19 22) 8))
(constraint (= (int_bvnor_5 19 23) 8))
(constraint (= (int_bvnor_5 19 24) 4))
(constraint (= (int_bvnor_5 19 25) 4))
(constraint (= (int_bvnor_5 19 26) 4))
(constraint (= (int_bvnor_5 19 27) 4))
(constraint (= (int_bvnor_5 19 28) 0))
(constraint (= (int_bvnor_5 19 29) 0))
(constraint (= (int_bvnor_5 19 30) 0))
(constraint (= (int_bvnor_5 19 31) 0))
(constraint (= (int_bvnor_5 20 0) 11))
(constraint (= (int_bvnor_5 20 1) 10))
(constraint (= (int_bvnor_5 20 2) 9))
(constraint (= (int_bvnor_5 20 3) 8))
(constraint (= (int_bvnor_5 20 4) 11))
(constraint (= (int_bvnor_5 20 5) 10))
(constraint (= (int_bvnor_5 20 6) 9))
(constraint (= (int_bvnor_5 20 7) 8))
(constraint (= (int_bvnor_5 20 8) 3))
(constraint (= (int_bvnor_5 20 9) 2))
(constraint (= (int_bvnor_5 20 10) 1))
(constraint (= (int_bvnor_5 20 11) 0))
(constraint (= (int_bvnor_5 20 12) 3))
(constraint (= (int_bvnor_5 20 13) 2))
(constraint (= (int_bvnor_5 20 14) 1))
(constraint (= (int_bvnor_5 20 15) 0))
(constraint (= (int_bvnor_5 20 16) 11))
(constraint (= (int_bvnor_5 20 17) 10))
(constraint (= (int_bvnor_5 20 18) 9))
(constraint (= (int_bvnor_5 20 19) 8))
(constraint (= (int_bvnor_5 20 20) 11))
(constraint (= (int_bvnor_5 20 21) 10))
(constraint (= (int_bvnor_5 20 22) 9))
(constraint (= (int_bvnor_5 20 23) 8))
(constraint (= (int_bvnor_5 20 24) 3))
(constraint (= (int_bvnor_5 20 25) 2))
(constraint (= (int_bvnor_5 20 26) 1))
(constraint (= (int_bvnor_5 20 27) 0))
(constraint (= (int_bvnor_5 20 28) 3))
(constraint (= (int_bvnor_5 20 29) 2))
(constraint (= (int_bvnor_5 20 30) 1))
(constraint (= (int_bvnor_5 20 31) 0))
(constraint (= (int_bvnor_5 21 0) 10))
(constraint (= (int_bvnor_5 21 1) 10))
(constraint (= (int_bvnor_5 21 2) 8))
(constraint (= (int_bvnor_5 21 3) 8))
(constraint (= (int_bvnor_5 21 4) 10))
(constraint (= (int_bvnor_5 21 5) 10))
(constraint (= (int_bvnor_5 21 6) 8))
(constraint (= (int_bvnor_5 21 7) 8))
(constraint (= (int_bvnor_5 21 8) 2))
(constraint (= (int_bvnor_5 21 9) 2))
(constraint (= (int_bvnor_5 21 10) 0))
(constraint (= (int_bvnor_5 21 11) 0))
(constraint (= (int_bvnor_5 21 12) 2))
(constraint (= (int_bvnor_5 21 13) 2))
(constraint (= (int_bvnor_5 21 14) 0))
(constraint (= (int_bvnor_5 21 15) 0))
(constraint (= (int_bvnor_5 21 16) 10))
(constraint (= (int_bvnor_5 21 17) 10))
(constraint (= (int_bvnor_5 21 18) 8))
(constraint (= (int_bvnor_5 21 19) 8))
(constraint (= (int_bvnor_5 21 20) 10))
(constraint (= (int_bvnor_5 21 21) 10))
(constraint (= (int_bvnor_5 21 22) 8))
(constraint (= (int_bvnor_5 21 23) 8))
(constraint (= (int_bvnor_5 21 24) 2))
(constraint (= (int_bvnor_5 21 25) 2))
(constraint (= (int_bvnor_5 21 26) 0))
(constraint (= (int_bvnor_5 21 27) 0))
(constraint (= (int_bvnor_5 21 28) 2))
(constraint (= (int_bvnor_5 21 29) 2))
(constraint (= (int_bvnor_5 21 30) 0))
(constraint (= (int_bvnor_5 21 31) 0))
(constraint (= (int_bvnor_5 22 0) 9))
(constraint (= (int_bvnor_5 22 1) 8))
(constraint (= (int_bvnor_5 22 2) 9))
(constraint (= (int_bvnor_5 22 3) 8))
(constraint (= (int_bvnor_5 22 4) 9))
(constraint (= (int_bvnor_5 22 5) 8))
(constraint (= (int_bvnor_5 22 6) 9))
(constraint (= (int_bvnor_5 22 7) 8))
(constraint (= (int_bvnor_5 22 8) 1))
(constraint (= (int_bvnor_5 22 9) 0))
(constraint (= (int_bvnor_5 22 10) 1))
(constraint (= (int_bvnor_5 22 11) 0))
(constraint (= (int_bvnor_5 22 12) 1))
(constraint (= (int_bvnor_5 22 13) 0))
(constraint (= (int_bvnor_5 22 14) 1))
(constraint (= (int_bvnor_5 22 15) 0))
(constraint (= (int_bvnor_5 22 16) 9))
(constraint (= (int_bvnor_5 22 17) 8))
(constraint (= (int_bvnor_5 22 18) 9))
(constraint (= (int_bvnor_5 22 19) 8))
(constraint (= (int_bvnor_5 22 20) 9))
(constraint (= (int_bvnor_5 22 21) 8))
(constraint (= (int_bvnor_5 22 22) 9))
(constraint (= (int_bvnor_5 22 23) 8))
(constraint (= (int_bvnor_5 22 24) 1))
(constraint (= (int_bvnor_5 22 25) 0))
(constraint (= (int_bvnor_5 22 26) 1))
(constraint (= (int_bvnor_5 22 27) 0))
(constraint (= (int_bvnor_5 22 28) 1))
(constraint (= (int_bvnor_5 22 29) 0))
(constraint (= (int_bvnor_5 22 30) 1))
(constraint (= (int_bvnor_5 22 31) 0))
(constraint (= (int_bvnor_5 23 0) 8))
(constraint (= (int_bvnor_5 23 1) 8))
(constraint (= (int_bvnor_5 23 2) 8))
(constraint (= (int_bvnor_5 23 3) 8))
(constraint (= (int_bvnor_5 23 4) 8))
(constraint (= (int_bvnor_5 23 5) 8))
(constraint (= (int_bvnor_5 23 6) 8))
(constraint (= (int_bvnor_5 23 7) 8))
(constraint (= (int_bvnor_5 23 8) 0))
(constraint (= (int_bvnor_5 23 9) 0))
(constraint (= (int_bvnor_5 23 10) 0))
(constraint (= (int_bvnor_5 23 11) 0))
(constraint (= (int_bvnor_5 23 12) 0))
(constraint (= (int_bvnor_5 23 13) 0))
(constraint (= (int_bvnor_5 23 14) 0))
(constraint (= (int_bvnor_5 23 15) 0))
(constraint (= (int_bvnor_5 23 16) 8))
(constraint (= (int_bvnor_5 23 17) 8))
(constraint (= (int_bvnor_5 23 18) 8))
(constraint (= (int_bvnor_5 23 19) 8))
(constraint (= (int_bvnor_5 23 20) 8))
(constraint (= (int_bvnor_5 23 21) 8))
(constraint (= (int_bvnor_5 23 22) 8))
(constraint (= (int_bvnor_5 23 23) 8))
(constraint (= (int_bvnor_5 23 24) 0))
(constraint (= (int_bvnor_5 23 25) 0))
(constraint (= (int_bvnor_5 23 26) 0))
(constraint (= (int_bvnor_5 23 27) 0))
(constraint (= (int_bvnor_5 23 28) 0))
(constraint (= (int_bvnor_5 23 29) 0))
(constraint (= (int_bvnor_5 23 30) 0))
(constraint (= (int_bvnor_5 23 31) 0))
(constraint (= (int_bvnor_5 24 0) 7))
(constraint (= (int_bvnor_5 24 1) 6))
(constraint (= (int_bvnor_5 24 2) 5))
(constraint (= (int_bvnor_5 24 3) 4))
(constraint (= (int_bvnor_5 24 4) 3))
(constraint (= (int_bvnor_5 24 5) 2))
(constraint (= (int_bvnor_5 24 6) 1))
(constraint (= (int_bvnor_5 24 7) 0))
(constraint (= (int_bvnor_5 24 8) 7))
(constraint (= (int_bvnor_5 24 9) 6))
(constraint (= (int_bvnor_5 24 10) 5))
(constraint (= (int_bvnor_5 24 11) 4))
(constraint (= (int_bvnor_5 24 12) 3))
(constraint (= (int_bvnor_5 24 13) 2))
(constraint (= (int_bvnor_5 24 14) 1))
(constraint (= (int_bvnor_5 24 15) 0))
(constraint (= (int_bvnor_5 24 16) 7))
(constraint (= (int_bvnor_5 24 17) 6))
(constraint (= (int_bvnor_5 24 18) 5))
(constraint (= (int_bvnor_5 24 19) 4))
(constraint (= (int_bvnor_5 24 20) 3))
(constraint (= (int_bvnor_5 24 21) 2))
(constraint (= (int_bvnor_5 24 22) 1))
(constraint (= (int_bvnor_5 24 23) 0))
(constraint (= (int_bvnor_5 24 24) 7))
(constraint (= (int_bvnor_5 24 25) 6))
(constraint (= (int_bvnor_5 24 26) 5))
(constraint (= (int_bvnor_5 24 27) 4))
(constraint (= (int_bvnor_5 24 28) 3))
(constraint (= (int_bvnor_5 24 29) 2))
(constraint (= (int_bvnor_5 24 30) 1))
(constraint (= (int_bvnor_5 24 31) 0))
(constraint (= (int_bvnor_5 25 0) 6))
(constraint (= (int_bvnor_5 25 1) 6))
(constraint (= (int_bvnor_5 25 2) 4))
(constraint (= (int_bvnor_5 25 3) 4))
(constraint (= (int_bvnor_5 25 4) 2))
(constraint (= (int_bvnor_5 25 5) 2))
(constraint (= (int_bvnor_5 25 6) 0))
(constraint (= (int_bvnor_5 25 7) 0))
(constraint (= (int_bvnor_5 25 8) 6))
(constraint (= (int_bvnor_5 25 9) 6))
(constraint (= (int_bvnor_5 25 10) 4))
(constraint (= (int_bvnor_5 25 11) 4))
(constraint (= (int_bvnor_5 25 12) 2))
(constraint (= (int_bvnor_5 25 13) 2))
(constraint (= (int_bvnor_5 25 14) 0))
(constraint (= (int_bvnor_5 25 15) 0))
(constraint (= (int_bvnor_5 25 16) 6))
(constraint (= (int_bvnor_5 25 17) 6))
(constraint (= (int_bvnor_5 25 18) 4))
(constraint (= (int_bvnor_5 25 19) 4))
(constraint (= (int_bvnor_5 25 20) 2))
(constraint (= (int_bvnor_5 25 21) 2))
(constraint (= (int_bvnor_5 25 22) 0))
(constraint (= (int_bvnor_5 25 23) 0))
(constraint (= (int_bvnor_5 25 24) 6))
(constraint (= (int_bvnor_5 25 25) 6))
(constraint (= (int_bvnor_5 25 26) 4))
(constraint (= (int_bvnor_5 25 27) 4))
(constraint (= (int_bvnor_5 25 28) 2))
(constraint (= (int_bvnor_5 25 29) 2))
(constraint (= (int_bvnor_5 25 30) 0))
(constraint (= (int_bvnor_5 25 31) 0))
(constraint (= (int_bvnor_5 26 0) 5))
(constraint (= (int_bvnor_5 26 1) 4))
(constraint (= (int_bvnor_5 26 2) 5))
(constraint (= (int_bvnor_5 26 3) 4))
(constraint (= (int_bvnor_5 26 4) 1))
(constraint (= (int_bvnor_5 26 5) 0))
(constraint (= (int_bvnor_5 26 6) 1))
(constraint (= (int_bvnor_5 26 7) 0))
(constraint (= (int_bvnor_5 26 8) 5))
(constraint (= (int_bvnor_5 26 9) 4))
(constraint (= (int_bvnor_5 26 10) 5))
(constraint (= (int_bvnor_5 26 11) 4))
(constraint (= (int_bvnor_5 26 12) 1))
(constraint (= (int_bvnor_5 26 13) 0))
(constraint (= (int_bvnor_5 26 14) 1))
(constraint (= (int_bvnor_5 26 15) 0))
(constraint (= (int_bvnor_5 26 16) 5))
(constraint (= (int_bvnor_5 26 17) 4))
(constraint (= (int_bvnor_5 26 18) 5))
(constraint (= (int_bvnor_5 26 19) 4))
(constraint (= (int_bvnor_5 26 20) 1))
(constraint (= (int_bvnor_5 26 21) 0))
(constraint (= (int_bvnor_5 26 22) 1))
(constraint (= (int_bvnor_5 26 23) 0))
(constraint (= (int_bvnor_5 26 24) 5))
(constraint (= (int_bvnor_5 26 25) 4))
(constraint (= (int_bvnor_5 26 26) 5))
(constraint (= (int_bvnor_5 26 27) 4))
(constraint (= (int_bvnor_5 26 28) 1))
(constraint (= (int_bvnor_5 26 29) 0))
(constraint (= (int_bvnor_5 26 30) 1))
(constraint (= (int_bvnor_5 26 31) 0))
(constraint (= (int_bvnor_5 27 0) 4))
(constraint (= (int_bvnor_5 27 1) 4))
(constraint (= (int_bvnor_5 27 2) 4))
(constraint (= (int_bvnor_5 27 3) 4))
(constraint (= (int_bvnor_5 27 4) 0))
(constraint (= (int_bvnor_5 27 5) 0))
(constraint (= (int_bvnor_5 27 6) 0))
(constraint (= (int_bvnor_5 27 7) 0))
(constraint (= (int_bvnor_5 27 8) 4))
(constraint (= (int_bvnor_5 27 9) 4))
(constraint (= (int_bvnor_5 27 10) 4))
(constraint (= (int_bvnor_5 27 11) 4))
(constraint (= (int_bvnor_5 27 12) 0))
(constraint (= (int_bvnor_5 27 13) 0))
(constraint (= (int_bvnor_5 27 14) 0))
(constraint (= (int_bvnor_5 27 15) 0))
(constraint (= (int_bvnor_5 27 16) 4))
(constraint (= (int_bvnor_5 27 17) 4))
(constraint (= (int_bvnor_5 27 18) 4))
(constraint (= (int_bvnor_5 27 19) 4))
(constraint (= (int_bvnor_5 27 20) 0))
(constraint (= (int_bvnor_5 27 21) 0))
(constraint (= (int_bvnor_5 27 22) 0))
(constraint (= (int_bvnor_5 27 23) 0))
(constraint (= (int_bvnor_5 27 24) 4))
(constraint (= (int_bvnor_5 27 25) 4))
(constraint (= (int_bvnor_5 27 26) 4))
(constraint (= (int_bvnor_5 27 27) 4))
(constraint (= (int_bvnor_5 27 28) 0))
(constraint (= (int_bvnor_5 27 29) 0))
(constraint (= (int_bvnor_5 27 30) 0))
(constraint (= (int_bvnor_5 27 31) 0))
(constraint (= (int_bvnor_5 28 0) 3))
(constraint (= (int_bvnor_5 28 1) 2))
(constraint (= (int_bvnor_5 28 2) 1))
(constraint (= (int_bvnor_5 28 3) 0))
(constraint (= (int_bvnor_5 28 4) 3))
(constraint (= (int_bvnor_5 28 5) 2))
(constraint (= (int_bvnor_5 28 6) 1))
(constraint (= (int_bvnor_5 28 7) 0))
(constraint (= (int_bvnor_5 28 8) 3))
(constraint (= (int_bvnor_5 28 9) 2))
(constraint (= (int_bvnor_5 28 10) 1))
(constraint (= (int_bvnor_5 28 11) 0))
(constraint (= (int_bvnor_5 28 12) 3))
(constraint (= (int_bvnor_5 28 13) 2))
(constraint (= (int_bvnor_5 28 14) 1))
(constraint (= (int_bvnor_5 28 15) 0))
(constraint (= (int_bvnor_5 28 16) 3))
(constraint (= (int_bvnor_5 28 17) 2))
(constraint (= (int_bvnor_5 28 18) 1))
(constraint (= (int_bvnor_5 28 19) 0))
(constraint (= (int_bvnor_5 28 20) 3))
(constraint (= (int_bvnor_5 28 21) 2))
(constraint (= (int_bvnor_5 28 22) 1))
(constraint (= (int_bvnor_5 28 23) 0))
(constraint (= (int_bvnor_5 28 24) 3))
(constraint (= (int_bvnor_5 28 25) 2))
(constraint (= (int_bvnor_5 28 26) 1))
(constraint (= (int_bvnor_5 28 27) 0))
(constraint (= (int_bvnor_5 28 28) 3))
(constraint (= (int_bvnor_5 28 29) 2))
(constraint (= (int_bvnor_5 28 30) 1))
(constraint (= (int_bvnor_5 28 31) 0))
(constraint (= (int_bvnor_5 29 0) 2))
(constraint (= (int_bvnor_5 29 1) 2))
(constraint (= (int_bvnor_5 29 2) 0))
(constraint (= (int_bvnor_5 29 3) 0))
(constraint (= (int_bvnor_5 29 4) 2))
(constraint (= (int_bvnor_5 29 5) 2))
(constraint (= (int_bvnor_5 29 6) 0))
(constraint (= (int_bvnor_5 29 7) 0))
(constraint (= (int_bvnor_5 29 8) 2))
(constraint (= (int_bvnor_5 29 9) 2))
(constraint (= (int_bvnor_5 29 10) 0))
(constraint (= (int_bvnor_5 29 11) 0))
(constraint (= (int_bvnor_5 29 12) 2))
(constraint (= (int_bvnor_5 29 13) 2))
(constraint (= (int_bvnor_5 29 14) 0))
(constraint (= (int_bvnor_5 29 15) 0))
(constraint (= (int_bvnor_5 29 16) 2))
(constraint (= (int_bvnor_5 29 17) 2))
(constraint (= (int_bvnor_5 29 18) 0))
(constraint (= (int_bvnor_5 29 19) 0))
(constraint (= (int_bvnor_5 29 20) 2))
(constraint (= (int_bvnor_5 29 21) 2))
(constraint (= (int_bvnor_5 29 22) 0))
(constraint (= (int_bvnor_5 29 23) 0))
(constraint (= (int_bvnor_5 29 24) 2))
(constraint (= (int_bvnor_5 29 25) 2))
(constraint (= (int_bvnor_5 29 26) 0))
(constraint (= (int_bvnor_5 29 27) 0))
(constraint (= (int_bvnor_5 29 28) 2))
(constraint (= (int_bvnor_5 29 29) 2))
(constraint (= (int_bvnor_5 29 30) 0))
(constraint (= (int_bvnor_5 29 31) 0))
(constraint (= (int_bvnor_5 30 0) 1))
(constraint (= (int_bvnor_5 30 1) 0))
(constraint (= (int_bvnor_5 30 2) 1))
(constraint (= (int_bvnor_5 30 3) 0))
(constraint (= (int_bvnor_5 30 4) 1))
(constraint (= (int_bvnor_5 30 5) 0))
(constraint (= (int_bvnor_5 30 6) 1))
(constraint (= (int_bvnor_5 30 7) 0))
(constraint (= (int_bvnor_5 30 8) 1))
(constraint (= (int_bvnor_5 30 9) 0))
(constraint (= (int_bvnor_5 30 10) 1))
(constraint (= (int_bvnor_5 30 11) 0))
(constraint (= (int_bvnor_5 30 12) 1))
(constraint (= (int_bvnor_5 30 13) 0))
(constraint (= (int_bvnor_5 30 14) 1))
(constraint (= (int_bvnor_5 30 15) 0))
(constraint (= (int_bvnor_5 30 16) 1))
(constraint (= (int_bvnor_5 30 17) 0))
(constraint (= (int_bvnor_5 30 18) 1))
(constraint (= (int_bvnor_5 30 19) 0))
(constraint (= (int_bvnor_5 30 20) 1))
(constraint (= (int_bvnor_5 30 21) 0))
(constraint (= (int_bvnor_5 30 22) 1))
(constraint (= (int_bvnor_5 30 23) 0))
(constraint (= (int_bvnor_5 30 24) 1))
(constraint (= (int_bvnor_5 30 25) 0))
(constraint (= (int_bvnor_5 30 26) 1))
(constraint (= (int_bvnor_5 30 27) 0))
(constraint (= (int_bvnor_5 30 28) 1))
(constraint (= (int_bvnor_5 30 29) 0))
(constraint (= (int_bvnor_5 30 30) 1))
(constraint (= (int_bvnor_5 30 31) 0))
(constraint (= (int_bvnor_5 31 0) 0))
(constraint (= (int_bvnor_5 31 1) 0))
(constraint (= (int_bvnor_5 31 2) 0))
(constraint (= (int_bvnor_5 31 3) 0))
(constraint (= (int_bvnor_5 31 4) 0))
(constraint (= (int_bvnor_5 31 5) 0))
(constraint (= (int_bvnor_5 31 6) 0))
(constraint (= (int_bvnor_5 31 7) 0))
(constraint (= (int_bvnor_5 31 8) 0))
(constraint (= (int_bvnor_5 31 9) 0))
(constraint (= (int_bvnor_5 31 10) 0))
(constraint (= (int_bvnor_5 31 11) 0))
(constraint (= (int_bvnor_5 31 12) 0))
(constraint (= (int_bvnor_5 31 13) 0))
(constraint (= (int_bvnor_5 31 14) 0))
(constraint (= (int_bvnor_5 31 15) 0))
(constraint (= (int_bvnor_5 31 16) 0))
(constraint (= (int_bvnor_5 31 17) 0))
(constraint (= (int_bvnor_5 31 18) 0))
(constraint (= (int_bvnor_5 31 19) 0))
(constraint (= (int_bvnor_5 31 20) 0))
(constraint (= (int_bvnor_5 31 21) 0))
(constraint (= (int_bvnor_5 31 22) 0))
(constraint (= (int_bvnor_5 31 23) 0))
(constraint (= (int_bvnor_5 31 24) 0))
(constraint (= (int_bvnor_5 31 25) 0))
(constraint (= (int_bvnor_5 31 26) 0))
(constraint (= (int_bvnor_5 31 27) 0))
(constraint (= (int_bvnor_5 31 28) 0))
(constraint (= (int_bvnor_5 31 29) 0))
(constraint (= (int_bvnor_5 31 30) 0))
(constraint (= (int_bvnor_5 31 31) 0))
(check-synth)
